c instance by G2
c solution = 1000101
c Known solution cost is 416 
p cnf 7 30
w 29 11 78 81 96 23 98
-6 4 -7 0
-2 -5 -3 0
-7 -2 -4 0
7 4 6 0
-5 6 -3 0
5 -4 -1 0
7 -4 6 0
3 1 -5 0
4 -2 -6 0
1 -3 7 0
2 -4 7 0
-2 4 5 0
-2 6 -1 0
7 4 -1 0
3 -7 -4 0
1 6 -5 0
-1 -4 3 0
2 -6 -5 0
-6 2 1 0
-3 -7 6 0
-5 1 6 0
-7 4 1 0
-6 -7 -1 0
3 7 1 0
-3 -7 2 0
-3 2 6 0
1 -7 4 0
1 5 -2 0
5 -1 6 0
-4 7 -2 0
